20
5
0
891
26
59
78
88
69
0
1063
38
62
90
54
30
0
908
27
44
64
47
61
0
1078
88
10
49
83
35
0
1176
95
23
47
84
53
0
594
55
64
20
9
98
0
569
54
47
61
30
94
0
702
63
68
93
11
33
0
843
23
54
36
92
77
0
1170
45
9
47
63
31
0
1044
86
30
70
62
54
0
1147
43
31
54
75
71
0
1149
43
92
87
48
78
0
1104
40
7
13
23
9
0
1055
37
14
40
85
79
0
572
54
95
34
23
51
0
1019
35
76
55
4
76
0
648
59
82
13
31
56
0
1148
43
91
11
13
80
0
516
50
37
5
98
72
o
2000
0.5
0.5
